#=======================================#
# iterations/iteration0105/aims-chain-node-0.56500/geometry.in
#=======================================#
lattice_vector 3.9408969800000002 0.0000000000000000 0.0000000000000000 
lattice_vector 0.0000000000000000 3.9408994300000000 0.0000000000000000 
lattice_vector 0.0000000000000000 0.0000000000000000 3.9408994300000000 
atom 0.0247103780137420 0.0247118181215916 0.0247117808667154 Pd
atom -0.0423615210037601 2.0133997254004892 2.0133997242546435 Pd
atom 2.0133986622420208 -0.0423611346687766 2.0133998862206530 Pd
atom 2.0133989788407325 2.0133999460488869 -0.0423611180279472 Pd
atom 1.3585700937318070 1.3585696745192011 1.3585695196532610 H
