#######################################################
#CASTEP cell file: triclinic_examples/K2S2O8_rotated.cell
#Created using the Atomic Simulation Environment (ASE)#
#######################################################

%BLOCK LATTICE_CART
 4.624323  2.105084  0.440747
-4.158052  5.363763  0.767824
 0.551033 -2.268769  4.869194
%ENDBLOCK LATTICE_CART

%BLOCK POSITIONS_ABS
K -2.223463  3.612117  3.067273
K  3.240768  1.587962  3.010491
O  0.065646  0.501867  0.442215
O  0.951658  4.698211  5.635550
O  0.853832  0.274418  3.728107
O  0.163472  4.925660  2.349658
O  1.541538  2.169893  0.888877
O -0.524234  3.030186  5.188888
O -0.820353  2.612348  0.980321
O  1.837658  2.587730  5.097444
S  0.201454  1.792672  0.391273
S  0.815850  3.407406  5.686492
%ENDBLOCK POSITIONS_ABS

