&FORCE_EVAL
  METHOD Quickstep
  &DFT
    BASIS_SET_FILE_NAME ../../basis/GTH_BASIS_SETS
    POTENTIAL_FILE_NAME ../../basis/GTH_POTENTIALS
    &MGRID
      CUTOFF 200
    &END MGRID
    &QS
      EXTRAPOLATION ASPC
      EXTRAPOLATION_ORDER 0
    &END QS
    &SCF
      EPS_SCF 1.0E-3
      &OT ON
   	MINIMIZER DIIS
        PRECONDITIONER FULL_ALL
      &END OT
    &END SCF
    &XC
      &XC_FUNCTIONAL Pade
      &END XC_FUNCTIONAL
    &END XC
  &END DFT
  STRESS_TENSOR DIAGONAL_ANALYTICAL
  &SUBSYS
    &CELL
      ABC 4.0 4.0 4.0
    &END CELL
    &COORD
    O   0.000000    0.000000   -0.065587
    H   0.000000   -0.757136    0.520545
    H   0.000000    0.757136    0.520545
    &END COORD
    &KIND H
      BASIS_SET DZVP-GTH-PADE
      POTENTIAL GTH-PADE-q1
    &END KIND
    &KIND O
      BASIS_SET DZVP-GTH-PADE
      POTENTIAL GTH-PADE-q6
    &END KIND
  &END SUBSYS
&END FORCE_EVAL
&GLOBAL
  PROJECT H2O
  RUN_TYPE DRIVER
  PRINT_LEVEL LOW
  SEED 1
&END GLOBAL
&MOTION
  &DRIVER
   HOST localhost
   PORT 21340
  &END DRIVER
&END MOTION
