5
# CELL(abcABC): 3.9775557240e+00  3.9775557240e+00  3.9775557240e+00  9.0000000000e+01  9.0000000000e+01  9.0000000000e+01   positions{angstrom} cell{angstrom}
Ba      1.988777861997259      1.988777861997259      1.988777861997259
Ti      0.000000000000000      0.000000000000000      0.000000000000000
O       0.000000000000000      0.000000000000000      1.988777861997259
O       0.000000000000000      1.988777861997259      0.000000000000000
O       1.988777861997259      0.000000000000000      0.000000000000000
