ENCUT=400
EDIFF=1E-5
GGA=PE
ISIF=3
LWAVE=F
LCHARG=F

IBRION=23
IHOST=127.0.0.1
PORT=23333
