ENCUT=400
EDIFF=1E-5
GGA=PE
ISIF=3
LWAVE=F
LCHARG=F

IBRION=23
IHOST=localhost
PORT=23333
