diamond
1.00000000
3.567  0  0
0  3.567  0
0  0  3.567
8
cart
       0.00000        0.00000        0.00000
       0.00000        1.78400        1.78400
       1.78400        1.78400        0.00000
       1.78400        0.00000        1.78400
       2.67500        0.89200        2.67500
       0.89200        0.89200        0.89200
       0.89200        2.67500        2.67500
       2.67500        2.67500        0.89200
