#=======================================================
# FHI-aims file: ./geometry.in
# Created using the Atomic Simulation Environment (ASE)
# Thu Jun 27 16:00:34 2019
#=======================================================
lattice_vector 40.0000000000000000 0.0000000000000000 0.0000000000000000 
lattice_vector 0.0000000000000000 40.0000000000000000 0.0000000000000000 
lattice_vector 0.0000000000000000 0.0000000000000000 40.0000000000000000 
atom 12.1245999999999992 28.0930000000000000 22.6000000000000014 O
atom 12.5367999999999995 28.7561000000000000 22.8993000000000002 H
constrain_relaxation .true.
atom 11.4947999999999997 28.5639000000000003 21.6568000000000005 H
