# 04.05.2020 Silicon bulk
units		metal
atom_style	atomic

read_data	data.si

pair_style  tersoff
pair_coeff  * * Si.tersoff Si

neighbor        2.0 bin

timestep        0.00025   # units: ps, but it doesn't matter for i-PI run

#thermo          1
#thermo_style    custom step temp pe etotal press

#dump        2 all custom 1 dump.vel vx vy vz
#dump_modify 2 element Si

#velocity all create 500.0 4928759

fix     1 all ipi si2x2 31415 unix
#fix     1 all nve

run		1000000
