lattice_vector 12.42 0 0
lattice_vector 0 12.42 0
lattice_vector 0 0  12.42
atom      3.87200451    -4.70772409     5.51032019  O
atom      4.39089155    -5.36467600     6.03586102  H
atom      3.28556848    -4.26432991     6.15682554  H
atom     -3.49037814     1.77580965     4.29954052  O
atom     -3.37079144     0.80161017     4.35748625  H
atom     -3.52955866     2.05874085     5.24729824  H
atom      4.55320263     2.91870642     5.34982634  O
atom      3.61520767     3.26033354     5.52512980  H
atom      4.45901918     2.60150838     4.43012667  H
atom     -2.52568817    -0.14156935    -3.46994543  O
atom     -2.06632090     0.41786537    -2.85543513  H
atom     -1.86208212    -0.81896126    -3.91945457  H
atom     -3.74953771     4.69276762     5.59264374  O
atom     -4.68076897     4.87683821     5.83332634  H
atom     -3.94165921     4.62883472     4.59733677  H
atom      5.65853024    -0.07854211     2.31897068  O
atom      6.36226654    -0.56412923     2.85864019  H
atom      6.19304895     0.72350234     2.01082659  H
atom      4.01238108    -5.58748102    -0.36483806  O
atom      3.20243025    -5.50193167     0.34991235  H
atom      3.84750724    -4.86502504    -0.95887291  H
atom     -2.68495989    -3.12122059    -1.23480248  O
atom     -3.06384277    -2.37504745    -1.77505028  H
atom     -2.15824151    -2.58165669    -0.65041298  H
atom      5.48023367    -3.21361542     3.06031513  O
atom      4.64530802    -3.23506665     3.53350520  H
atom      5.14816904    -2.99040270     2.09133196  H
atom      1.94897997     3.84619761     5.79112434  O
atom      1.47886336     2.97474980     5.65815544  H
atom      2.07761478     3.91378379     6.78994226  H
atom      4.04602623    -3.85466218    -3.03766966  O
atom      3.16063094    -3.73938894    -3.51467085  H
atom      4.36864138    -2.94919133    -2.82874012  H
atom      1.95596385    -1.84313405     1.05340958  O
atom      1.50849295    -2.40904450     1.72206092  H
atom      1.53974652    -2.07098246     0.09559846  H
atom      0.79715312    -5.69681072    -4.96826887  O
atom      1.57714391    -6.30273342    -4.84647989  H
atom      0.50936103    -5.78793287    -5.89066696  H
atom      4.86570072     3.73541880    -3.22641230  O
atom      4.53011465     2.82010698    -3.25209260  H
atom      5.36133623     3.93539476    -2.39088702  H
atom      2.97165036    -1.63700151     5.15331984  O
atom      3.77062273    -1.96377206     5.60928249  H
atom      3.24407268    -0.77698606     4.65200615  H
atom     -0.10084791     1.87807965     5.75541115  O
atom      0.15263179     0.99280357     6.13315868  H
atom     -0.06132697     1.69976640     4.75743151  H
