# (written by ASE)

units metal 
boundary p p p 
atom_modify sort 0 0.0 

read_data data.lmp

### interactions 
pair_style lj/cut 2.5 
pair_coeff * * 1 1 
mass * 1.0 

### run
fix  1 all ipi NaCl-cellopt 1234 unix

thermo_style custom step temp press cpu pxx pyy pzz pxy pxz pyz ke pe etotal vol lx ly lz atoms
thermo_modify flush yes
thermo 1
run 1999999999
#log /dev/stdout
