units		electron
atom_style	full

pair_style	lj/cut 0.51
bond_style      class2 
angle_style     harmonic

read_data	data_baseline.lmp
pair_coeff  * * 0 0.1

neighbor	2.0 bin
neigh_modify delay 0 every 1 check yes

timestep	0.00025

fix 1 all ipi lmp-base 32346 unix

run		100000000

