&CONTROL
    calculation='relax'
    verbosity='high'
    restart_mode='from_scratch'
    tstress=.true.
    tprnfor=.true.
    etot_conv_thr=5.0D-5
    forc_conv_thr=1.0D-4
    prefix='dia'
    outdir='./'
    pseudo_dir='../'
    max_seconds=7200
/
&SYSTEM
    ibrav=0
    NAT=64
    NTYP=1
    ECUTWFC=20
    ECUTRHO=100
    nspin=1
    occupations='fixed'
    nosym=.true.
/
&ELECTRONS
    conv_thr=1.0e-6
    mixing_mode='plain' 
    mixing_beta=0.2
    startingpot='atomic' 
    startingwfc='atomic'
/
&IONS
pot_extrapolation="second_order"
wfc_extrapolation="second_order"
/
ATOMIC_SPECIES   
    C  12.01 C.pbe-rrkjus.UPF
ATOMIC_POSITIONS (angstrom)
C          0.00000        0.00000        0.00000
C          0.00000        1.78400        1.78400
C          1.78400        1.78400        0.00000
C          1.78400        0.00000        1.78400
C          2.67500        0.89200        2.67500
C          0.89200        0.89200        0.89200
C          0.89200        2.67500        2.67500
C          2.67500        2.67500        0.89200
C          0.00000        0.00000        3.56700
C          0.00000        1.78400        5.35100
C          1.78400        1.78400        3.56700
C          1.78400        0.00000        5.35100
C          2.67500        0.89200        6.24200
C          0.89200        0.89200        4.45900
C          0.89200        2.67500        6.24200
C          2.67500        2.67500        4.45900
C          0.00000        3.56700        0.00000
C          0.00000        5.35100        1.78400
C          1.78400        5.35100        0.00000
C          1.78400        3.56700        1.78400
C          2.67500        4.45900        2.67500
C          0.89200        4.45900        0.89200
C          0.89200        6.24200        2.67500
C          2.67500        6.24200        0.89200
C          0.00000        3.56700        3.56700
C          0.00000        5.35100        5.35100
C          1.78400        5.35100        3.56700
C          1.78400        3.56700        5.35100
C          2.67500        4.45900        6.24200
C          0.89200        4.45900        4.45900
C          0.89200        6.24200        6.24200
C          2.67500        6.24200        4.45900
C          3.56700        0.00000        0.00000
C          3.56700        1.78400        1.78400
C          5.35100        1.78400        0.00000
C          5.35100        0.00000        1.78400
C          6.24200        0.89200        2.67500
C          4.45900        0.89200        0.89200
C          4.45900        2.67500        2.67500
C          6.24200        2.67500        0.89200
C          3.56700        0.00000        3.56700
C          3.56700        1.78400        5.35100
C          5.35100        1.78400        3.56700
C          5.35100        0.00000        5.35100
C          6.24200        0.89200        6.24200
C          4.45900        0.89200        4.45900
C          4.45900        2.67500        6.24200
C          6.24200        2.67500        4.45900
C          3.56700        3.56700        0.00000
C          3.56700        5.35100        1.78400
C          5.35100        5.35100        0.00000
C          5.35100        3.56700        1.78400
C          6.24200        4.45900        2.67500
C          4.45900        4.45900        0.89200
C          4.45900        6.24200        2.67500
C          6.24200        6.24200        0.89200
C          3.56700        3.56700        3.56700
C          3.56700        5.35100        5.35100
C          5.35100        5.35100        3.56700
C          5.35100        3.56700        5.35100
C          6.24200        4.45900        6.24200
C          4.45900        4.45900        4.45900
C          4.45900        6.24200        6.24200
C          6.24200        6.24200        4.45900
K_POINTS (gamma)
CELL_PARAMETERS (bohr)
13.581306 .0 .0
.0 13.581306 .0
.0 .0 13.581306


