# SPC/E water box benchmark

units		real	
atom_style	full

read_data	data.far-away.water

pair_style	lj/cut/coul/long 9.8 9.8
kspace_style	pppm 1.0e-4

pair_coeff	1 1 0.15535 3.166
pair_coeff	* 2 0.0000 0.0000	

bond_style	harmonic
angle_style	harmonic
dihedral_style	none
improper_style	none

bond_coeff	1 1000.00 1.000
angle_coeff	1 100.0 109.47

special_bonds   lj/coul 0.0 0.0 0.5

neighbor        2.0 bin
neigh_modify	every 1 delay 10 check yes

fix  1 all ipi water-geop 1234 unix reset

thermo          1 
thermo_style    one
thermo_modify   flush yes

run		1000000
