units		electron
atom_style	full

pair_style      lj/cut/tip4p/long 1 2 1 1 0.278072379 17.007
bond_style      harmonic
angle_style     harmonic
kspace_style	pppm/tip4p 0.0001

read_data	data_delta.lmp
pair_coeff  * * 0 0
pair_coeff  1  1  0.000295147 5.96946

neighbor	2.0 bin
neigh_modify delay 0 every 1 check yes

timestep	0.00025

fix 1 all ipi lmp-comm-2 32347 unix

run		100000000

